Workload Stress 03	Medium Objects (128MB,256MB,512MB)	1000	001,100	x	x	x		
Workload Stress 07	Backup Med Range (100-500)MB	3000	001,100				x	
Workload Stress 10	Fileshare Med (100-500)MB	1000	001,100					x
Workload Stress 12	Mix Usage Med (0100-500)MB	1000	001,100				x	
